NAME: instance_130
TYPE: TSP
DIMENSION: 20
EDGE_WEIGHT_TYPE: EUC_2D
NODE_COORD_SECTION
0 41.48 66.69
1 66.36 56.69
2 48.88 45.82
3 20.57 5.04
4 98.18 98.42
5 28.80 9.98
6 7.00 32.22
7 46.90 65.65
8 32.82 47.02
9 18.78 80.96
10 39.06 17.88
11 91.71 59.09
12 9.22 93.26
13 28.84 35.16
14 3.42 0.62
15 61.86 5.96
16 58.21 95.16
17 41.32 38.50
18 37.94 10.32
19 72.97 17.91
EOF
